260 261 263 264 265 266 267 296 295 294 293 270 269 268 271 272 273 274 275 292 291 290 289 288 276 277 278 279 282 281 280 287 286 285 284 283 334 335 336 337 338 339 333 332 331 330 340 341 342 343 344 345 346 364 363 362 347 348 349 350 351 415 416 414 413 352 353 354 355 357 358 359 361 360 401 403 402 356 412 411 410 418 417 419 420 421 422 423 424 425 426 427 428 429 430 437 438 436 435 434 433 432 431 382 383 384 409 404 405 406 400 399 398 397 407 408 385 386 387 388 389 390 392 391 393 394 395 396 371 372 370 369 368 365 367 366 329 328 327 326 325 324 323 322 317 318 305 306 304 303 307 308 505 504 503 502 309 310 311 451 312 313 316 314 315 374 373 375 376 377 378 379 380 381 445 444 443 442 446 447 448 449 450 441 440 439 454 453 452 499 500 501 498 497 496 465 464 463 462 461 460 459 458 457 456 455 3 2 1 4 0 5 6 572 573 571 466 467 468 469 470 471 472 473 474 570 569 568 20 19 18 17 8 7 9 10 11 16 15 14 13 12 23 22 21 24 25 26 27 28 29 31 30 32 33 34 35 36 37 38 40 41 39 42 44 43 49 48 47 45 46 91 92 93 90 89 88 77 78 62 79 80 87 86 85 84 51 50 52 54 53 55 56 83 82 57 58 81 59 60 61 63 64 76 75 74 73 72 65 66 67 68 70 69 124 71 123 122 121 120 119 118 95 94 97 96 98 99 552 553 554 555 556 557 558 559 550 551 101 100 102 103 104 105 106 117 115 116 126 125 127 128 129 130 131 132 133 137 138 139 140 141 151 150 149 152 148 147 153 145 146 142 143 144 136 135 134 158 157 159 156 155 154 164 166 167 163 168 162 160 161 113 112 114 111 110 109 108 173 174 107 542 541 543 544 547 546 545 548 549 564 560 561 562 563 565 566 567 475 476 477 478 479 480 481 482 483 485 484 536 537 539 538 540 176 177 175 172 170 171 169 180 181 179 178 187 188 186 182 183 185 184 194 195 196 197 198 199 200 201 165 203 204 202 208 207 206 205 209 210 211 212 213 214 215 216 217 223 224 222 221 220 218 219 193 192 191 190 226 225 189 227 228 229 230 231 233 232 234 235 236 528 529 530 531 532 533 489 488 534 535 487 486 490 491 492 493 525 524 494 495 518 519 520 521 522 523 526 527 517 516 515 514 513 512 511 510 509 506 507 508 302 301 241 242 244 243 240 237 239 238 246 247 245 248 249 250 251 252 254 253 255 256 257 300 299 319 320 321 297 298 262 258 259